global _chemical_name MyName            
   1.00000000000000     
    17.1183065631260938   -0.0130183445107746   -0.0266845640568115
    -0.0130274839774715   17.0653813115222128   -0.0284052337182407
    -0.0266547525557177   -0.0283888288468581   17.0222905475491473
   Ag   Bi   S 
    54    54   108
Direct
  0.3493288208354024  0.3355168221305432 -0.0052179535938115
  0.6562593251878156  0.3530887672016001 -0.0358055673352382
 -0.0398957783988744  0.3185454661578568 -0.0105379267986581
  0.3306314826409399  0.6777164438460986 -0.0020797467391270
  0.0010349334807249  0.6796487712945549 -0.0103891008645767
  0.3563280867784255 -0.0196126507169559 -0.0103315537660931
  0.6734006234718867  0.0114004403785460 -0.0060269706690779
 -0.0109267749419913  0.0025938107584329  0.0014570904340174
  0.6642042573682055  0.3314773783962274  0.3506393422205643
  0.3385981454989895  0.6645265928002289  0.3496381130317106
  0.6651191635206629  0.3411291586756604  0.6578764658274573
  0.3463140817834914  0.6714354474460013  0.6620453435120345
  0.6483742041647143  0.6730384483812932  0.6663951947468262
 -0.0058001875509261  0.1654591334678082  0.8362474514672050
  0.6629676821895706  0.4973159161091898  0.8220436750313272
  0.3881077690234408  0.8389596193849909  0.8770565533949524
  0.6288755716315123  0.8637008896187437  0.8625495514840456
 -0.0050634429364828  0.8446522230490027  0.8326458503598471
  0.3308198928274477  0.1482579260467377  0.1598519145905804
  0.3790781755878717  0.8476271903089726  0.1116298352815063
  0.6545000272690922  0.8356790049494892  0.1532985153774120
  0.3459680435576020  0.1680990054003459  0.4926526004262285
  0.6545195407521299  0.1603858344755279  0.5071498634894641
 -0.0212774788828157  0.1755377619350061  0.5091998923111594
  0.3431206759107316  0.4953095447178216  0.5031064638648514
  0.6532339299826355  0.4802489558364911  0.5066487594873184
  0.6513332312817284  0.8429976325226316  0.5317029052097142
  0.0049804372404871  0.8537895705141018  0.4998476319624852
  0.5121928588859391  0.3482387740970886  0.8355848867242003
  0.8272003984041787  0.3366292227337975  0.8414289661582431
  0.4925612160040154  0.6994368161655699  0.8343074897162165
  0.5021918085480194  0.0048402954117101  0.8211641235640486
  0.8369653260002142  0.0207766511000101  0.8472746882589286
  0.1819604673002405 -0.0091246955914687  0.1540684258220358
  0.8286315342381894  0.0047051696033775  0.1642212365924220
  0.1739558123964695  0.3287313474189909  0.4986932639345125
  0.8234261853919408  0.3329475819271033  0.5033251625155007
  0.5031434565289762  0.6658915757615994  0.5172652698733038
  0.5032287512973591  0.0081576215806439  0.4982186784574351
  0.8319227797064255  0.1734365923442698 -0.0052262808552430
  0.1562143273180759  0.4840314686943387 -0.0057046344513204
  0.4949980304140472  0.5193859638016329 -0.0027190644369206
  0.8287322290195530  0.5026242867012586 -0.0058440328303065
  0.1620160348984578  0.8420972034456599 -0.0025564726787113
  0.5127997456720697  0.8412741290929840 -0.0068354030442095
  0.1734648205344781  0.1636781773161530  0.3350188174757103
  0.4831119730031820  0.1549829401566780  0.3330089566881999
  0.8230810339446434  0.4948013356408634  0.3385220620227992
  0.1764418063131400  0.8353888682408168  0.3267286437413829
  0.4985871521513495  0.8339297665920810  0.3502591669885474
  0.5118958782804804  0.1739262393395874  0.6569103379649023
  0.8321372764246636  0.1693352984371981  0.6780411625966746
  0.1751913786874768  0.4981839836634478  0.6642043891847600
  0.5040362291549986  0.8409006979086002  0.6476875292656784
  0.6608798363934153  0.6684249380952262 -0.0118919300921005
  0.3362085176554903  0.3227105615619677  0.3349550218176128
 -0.0023623298504036  0.3270844613529600  0.3403924125230874
  0.6578963092423081  0.6705983263087675  0.3443503870541954
  0.0058305906876325  0.6715296894548701  0.3351055399929564
  0.3356167019530399 -0.0109147504970056  0.3281547386252252
  0.6614189003389745 -0.0026041644314441  0.3350468374074870
  0.0082986984197729  0.0018971593244958  0.3337300500767175
  0.3408002426397180  0.3335249320006572  0.6660950183515318
 -0.0073222119403333  0.3261072361685661  0.6680798969026730
  0.0022633837729305  0.6700876891496375  0.6693622442397252
  0.3479940720107334 -0.0110134758829431  0.6725611252115288
  0.6607119696258136  0.0013833120920882  0.6803754234181936
 -0.0039331091289839  0.0017968963374671  0.6743520285678799
  0.3328166827275830  0.1589157113912798  0.8403070458859592
  0.6763257286181614  0.1799254932425873  0.8283174945537004
  0.3399554234346258  0.5073913157624035  0.8393262375763183
 -0.0037884609504729  0.4931364341287284  0.8386190875969823
  0.6632806302449817  0.1632763964647626  0.1669137304029155
  0.0008658384800685  0.1602834853532699  0.1570276142835229
  0.3330364693998312  0.5033278785838572  0.1644861021726948
  0.6632203739300118  0.5020677389325492  0.1637681339507653
 -0.0042215897461925  0.4956588387669442  0.1538300342903847
  0.0095533720483991  0.8380142511520767  0.1580673492429628
 -0.0006969263793689  0.4929094617234371  0.5008111136261107
  0.3397765979250104  0.8253473337452500  0.5001827922566892
  0.1698286889244418  0.3340492582408540  0.8343480438797022
  0.1747337122822772  0.6686609420128833  0.8436842918849607
  0.8268161584597911  0.6619900449779988  0.8348340655716515
  0.1585523061320431 -0.0067848750314761  0.8453955065174975
  0.1698416473614180  0.3291824820002212  0.1620548316267258
  0.5002973769949101  0.3296765380914413  0.1611685058627570
  0.8215032656313265  0.3329894525035483  0.1568506961190633
  0.1760709480101673  0.6757501720070688  0.1531594670945448
  0.4893167650656032  0.6806262032421854  0.1616816784408835
  0.8305330989713221  0.6689049316854340  0.1601338208729167
  0.4996329609341306 -0.0058417598409455  0.1630723671808987
  0.5036056393754912  0.3270313118287495  0.5030253915510732
  0.1738405935734585  0.6632046984651451  0.5013680760200016
  0.8228516062750499  0.6637438591370680  0.4996973380307756
  0.1732083234688729  0.0030940860124318  0.4964656323454060
  0.8304406158059655  0.0019751198415428  0.4999664806041282
  0.1664400466487511  0.1656659673865789  0.0013171152285642
  0.5004344656155343  0.1609609036897963 -0.0046712801992941
  0.8378015837538857  0.8449406497647571 -0.0042106783790013
  0.8286648935990647  0.1703828453378316  0.3391399879898661
  0.1709091842508519  0.4955067692594382  0.3392184577992326
  0.5004693230998413  0.5055306976656277  0.3448972343684453
  0.8314186070709034  0.8327258480868968  0.3336595259861569
  0.1703102257642941  0.1687125401158194  0.6560499375864107
  0.5021643618057288  0.5112095985921087  0.6784095839869533
  0.8221366917401072  0.4878480431970754  0.6631807668830915
  0.1703434195110074  0.8292561950733229  0.6662359864194182
  0.8219885929743307  0.8317605696745078  0.6698610180629614
  0.1606290214657068  0.1698727919624870  0.1655779182903385
  0.5015594531945281  0.1669078263058125  0.1795799082084829
  0.8302778493440092  0.1709099980075660  0.1474436090707302
  0.1660049602194916  0.5002442852176400  0.1736009376474865
  0.5004202199525547  0.5011278570432123  0.1720841813892024
  0.8349361222553290  0.4986925966056802  0.1889639665530248
  0.1659373891015000  0.8287279148736104  0.1686652234946333
  0.5015385943540253  0.8343939248263240  0.1939239260974644
  0.8361494815544199  0.8266412697605424  0.1590055346554880
  0.1972826915810016  0.1620273438622035  0.4998209682176106
  0.4921137039680046  0.1754739675381114  0.4817851483355814
  0.8238090515137145  0.1605858142143719  0.4934352528499030
  0.1644922349671052  0.5014975317700182  0.5092411357371657
  0.4976290719030527  0.5192455099926822  0.5037857110972339
  0.8314941178574479  0.5011933604763590  0.4892886352751717
  0.1656913355664749  0.8307541110669816  0.5008278972277241
  0.4980085145632421  0.8121779896857364  0.5028620044000806
  0.8458267588772931  0.8307767911911478  0.4927880802004972
  0.1628880216265691  0.1660218469676219  0.8334175232963226
  0.4955113004970188  0.1495472009424788  0.8377326826468572
  0.8298150439652856  0.1884950748882678  0.8472139785386792
  0.1650082335097236  0.4994097298996020  0.8177871398135341
  0.4966510112641389  0.5004029561417410  0.8363611600711492
  0.8343987328461654  0.4859486553927326  0.8250385478696968
  0.1423633907852949  0.8304635247979895  0.8327538031773424
  0.5001841942206191  0.8627247477113610  0.7930387527765512
  0.8491305284922089  0.8221203166476792  0.8292903616753748
  0.1407757430696696  0.0089660557201809  0.0014126206923335
  0.5107710857556483 -0.0136376702006979  0.0099292806309209
  0.8392571140852843 -0.0030807354554969  0.0149687878925053
  0.2013713647398978  0.3420456552922936 -0.0010473168917115
  0.4956134345521460  0.3207648132637866 -0.0013099325161611
  0.8044523089963382  0.3574267617839130  0.0084400988486451
  0.1458438164107917  0.6345051868963977  0.0000637187788819
  0.5090666993681238  0.6962133809978300 -0.0157123133298427
  0.8473745124813229  0.6494996506881763 -0.0011313147175022
  0.1707959433831431  0.0017570919560137  0.3366714725838680
  0.5041295834972666 -0.0054568483844049  0.3497296744013526
  0.8392330443294045 -0.0009375305584045  0.3159356248205999
  0.1669652937675313  0.3302704583691839  0.3262393927673198
  0.4970579085698426  0.3402031205516901  0.3309133087065043
  0.8374677434959860  0.3295483400877505  0.3540636910031429
  0.1642787664886572  0.6638550471058006  0.3330243284659536
  0.4994133476544072  0.6734107858301667  0.3216793873579179
  0.8320014306549083  0.6674084174464505  0.3308780911656689
  0.1649326667664546 -0.0015930161566481  0.6703380238013822
  0.5025212253427669  0.0279688583328525  0.6442958748525206
  0.8312201201481947 -0.0033862717584327  0.6593418990806068
  0.1661346623185586  0.3299204409000806  0.6696424502420770
  0.4985542184921546  0.3194338606653734  0.6653624465515937
  0.8330351490739126  0.3291507914437997  0.6503197048397382
  0.1675651159998608  0.6654221870973867  0.6683801853238333
  0.4971106414078903  0.6629863750265850  0.6892443141030961
  0.8348339459302785  0.6619660242109222  0.6653948530649344
  0.0012597931094517  0.1778423973361926 -0.0012941662269108
  0.3288850732282589  0.1361072889974009  0.0092493113864005
  0.6584688549439892  0.1678309935709706  0.0012979524923449
 -0.0039698308415259  0.4649714636105127  0.0011392309427387
  0.3496637729147809  0.5331786561186620  0.0055727936617615
  0.6408905141377005  0.5030718304500004  0.0084000405834060
  0.0134878851215533  0.8324327974175209  0.0039468305624766
  0.3050413217733278  0.8199328771971541 -0.0083947781356153
  0.6815236337561518  0.8358072505510022  0.0008566483899959
  0.0111910489887811  0.1631182734349333  0.3326209723082051
  0.3251032309861393  0.1662559075625773  0.3099167200548182
  0.6719272119632392  0.1630081933104073  0.3344190463487988
  0.0035168823635626  0.4944673238345272  0.3334028482103405
  0.3314377012184377  0.4967967678462171  0.3312321017244265
  0.6600525874068993  0.5075450784007477  0.3465757177108373
  0.0113175889153365  0.8296288703291093  0.3402791330541471
  0.3284876536097133  0.8337374006261681  0.3399545139438947
  0.6762690188140160  0.8352906392997154  0.3109726275090079
 -0.0149998665867369  0.1599105981890053  0.6668174868413423
  0.3254080668309958  0.1597539493432741  0.6745810881253564
  0.6818297713972029  0.1587322681791879  0.6681583952409031
 -0.0011333924103028  0.4904648255467833  0.6678734826275609
  0.3384191311085247  0.4942663052758511  0.6739137102162397
  0.6685672177580291  0.5145724430451926  0.6568257232539144
 -0.0000363992081156  0.8269261833096634  0.6532470515542593
  0.3285702015915041  0.8302649439568749  0.6717012602216297
  0.6718898327225118  0.8251453367544120  0.6847415279742772
  0.0293422886921163  0.0000419634501242  0.1706775219429893
  0.3286063305782733 -0.0133513929100479  0.1728839383404999
  0.6609985898756213  0.0027441754606907  0.1676154940914796
 -0.0028549002355215  0.3327093957271217  0.1715334949835436
  0.3334225854049537  0.3341667020573659  0.1678128030654881
  0.6630918709048821  0.3346243069863455  0.1967666230050083
  0.0020534378893130  0.6648234999881327  0.1684578485254477
  0.3337536856431821  0.6646642628307240  0.1957504497282064
  0.6681100980094830  0.6646247388053866  0.1659940389605247
  0.0055143655803836  0.0145918324548093  0.4968764880288210
  0.3349409442344757 -0.0098300949719709  0.5080096871853342
  0.6731304307509359 -0.0075133920696883  0.4996771720084271
  0.0244966675306760  0.3242761688837000  0.4992085096996110
  0.3222620070858750  0.3442041955421559  0.4998561079290574
  0.6591664549986277  0.3208063474117400  0.5022168828720013
 -0.0022419434354180  0.6550030807607187  0.4991190440662605
  0.3286437637098618  0.6544736871170569  0.5018369627022676
  0.6681925862661615  0.6898522958072713  0.5004860552391994
 -0.0168281454444773  0.0103410055481489  0.8286642876251661
  0.3152149940667131 -0.0031214178674021  0.8384646387719594
  0.6912424351076276  0.0091887002999407  0.8344765525834718
  0.0030983084250876  0.3240603248209394  0.8275687925592971
  0.3365343494742406  0.3278211311221533  0.8297749400151628
  0.6613233948849213  0.3411191314136961  0.8105652669854190
  0.0005821301705811  0.6538029502743349  0.8296799965092707
  0.3290784174842684  0.6619922187103572  0.8199654185337956
  0.6717236580609562  0.6504534819382288  0.8330094220677214
 
  0.00000000E+00  0.00000000E+00  0.00000000E+00
  0.00000000E+00  0.00000000E+00  0.00000000E+00
  0.00000000E+00  0.00000000E+00  0.00000000E+00
  0.00000000E+00  0.00000000E+00  0.00000000E+00
  0.00000000E+00  0.00000000E+00  0.00000000E+00
  0.00000000E+00  0.00000000E+00  0.00000000E+00
  0.00000000E+00  0.00000000E+00  0.00000000E+00
  0.00000000E+00  0.00000000E+00  0.00000000E+00
  0.00000000E+00  0.00000000E+00  0.00000000E+00
  0.00000000E+00  0.00000000E+00  0.00000000E+00
  0.00000000E+00  0.00000000E+00  0.00000000E+00
  0.00000000E+00  0.00000000E+00  0.00000000E+00
  0.00000000E+00  0.00000000E+00  0.00000000E+00
  0.00000000E+00  0.00000000E+00  0.00000000E+00
  0.00000000E+00  0.00000000E+00  0.00000000E+00
  0.00000000E+00  0.00000000E+00  0.00000000E+00
  0.00000000E+00  0.00000000E+00  0.00000000E+00
  0.00000000E+00  0.00000000E+00  0.00000000E+00
  0.00000000E+00  0.00000000E+00  0.00000000E+00
  0.00000000E+00  0.00000000E+00  0.00000000E+00
  0.00000000E+00  0.00000000E+00  0.00000000E+00
  0.00000000E+00  0.00000000E+00  0.00000000E+00
  0.00000000E+00  0.00000000E+00  0.00000000E+00
  0.00000000E+00  0.00000000E+00  0.00000000E+00
  0.00000000E+00  0.00000000E+00  0.00000000E+00
  0.00000000E+00  0.00000000E+00  0.00000000E+00
  0.00000000E+00  0.00000000E+00  0.00000000E+00
  0.00000000E+00  0.00000000E+00  0.00000000E+00
  0.00000000E+00  0.00000000E+00  0.00000000E+00
  0.00000000E+00  0.00000000E+00  0.00000000E+00
  0.00000000E+00  0.00000000E+00  0.00000000E+00
  0.00000000E+00  0.00000000E+00  0.00000000E+00
  0.00000000E+00  0.00000000E+00  0.00000000E+00
  0.00000000E+00  0.00000000E+00  0.00000000E+00
  0.00000000E+00  0.00000000E+00  0.00000000E+00
  0.00000000E+00  0.00000000E+00  0.00000000E+00
  0.00000000E+00  0.00000000E+00  0.00000000E+00
  0.00000000E+00  0.00000000E+00  0.00000000E+00
  0.00000000E+00  0.00000000E+00  0.00000000E+00
  0.00000000E+00  0.00000000E+00  0.00000000E+00
  0.00000000E+00  0.00000000E+00  0.00000000E+00
  0.00000000E+00  0.00000000E+00  0.00000000E+00
  0.00000000E+00  0.00000000E+00  0.00000000E+00
  0.00000000E+00  0.00000000E+00  0.00000000E+00
  0.00000000E+00  0.00000000E+00  0.00000000E+00
  0.00000000E+00  0.00000000E+00  0.00000000E+00
  0.00000000E+00  0.00000000E+00  0.00000000E+00
  0.00000000E+00  0.00000000E+00  0.00000000E+00
  0.00000000E+00  0.00000000E+00  0.00000000E+00
  0.00000000E+00  0.00000000E+00  0.00000000E+00
  0.00000000E+00  0.00000000E+00  0.00000000E+00
  0.00000000E+00  0.00000000E+00  0.00000000E+00
  0.00000000E+00  0.00000000E+00  0.00000000E+00
  0.00000000E+00  0.00000000E+00  0.00000000E+00
  0.00000000E+00  0.00000000E+00  0.00000000E+00
  0.00000000E+00  0.00000000E+00  0.00000000E+00
  0.00000000E+00  0.00000000E+00  0.00000000E+00
  0.00000000E+00  0.00000000E+00  0.00000000E+00
  0.00000000E+00  0.00000000E+00  0.00000000E+00
  0.00000000E+00  0.00000000E+00  0.00000000E+00
  0.00000000E+00  0.00000000E+00  0.00000000E+00
  0.00000000E+00  0.00000000E+00  0.00000000E+00
  0.00000000E+00  0.00000000E+00  0.00000000E+00
  0.00000000E+00  0.00000000E+00  0.00000000E+00
  0.00000000E+00  0.00000000E+00  0.00000000E+00
  0.00000000E+00  0.00000000E+00  0.00000000E+00
  0.00000000E+00  0.00000000E+00  0.00000000E+00
  0.00000000E+00  0.00000000E+00  0.00000000E+00
  0.00000000E+00  0.00000000E+00  0.00000000E+00
  0.00000000E+00  0.00000000E+00  0.00000000E+00
  0.00000000E+00  0.00000000E+00  0.00000000E+00
  0.00000000E+00  0.00000000E+00  0.00000000E+00
  0.00000000E+00  0.00000000E+00  0.00000000E+00
  0.00000000E+00  0.00000000E+00  0.00000000E+00
  0.00000000E+00  0.00000000E+00  0.00000000E+00
  0.00000000E+00  0.00000000E+00  0.00000000E+00
  0.00000000E+00  0.00000000E+00  0.00000000E+00
  0.00000000E+00  0.00000000E+00  0.00000000E+00
  0.00000000E+00  0.00000000E+00  0.00000000E+00
  0.00000000E+00  0.00000000E+00  0.00000000E+00
  0.00000000E+00  0.00000000E+00  0.00000000E+00
  0.00000000E+00  0.00000000E+00  0.00000000E+00
  0.00000000E+00  0.00000000E+00  0.00000000E+00
  0.00000000E+00  0.00000000E+00  0.00000000E+00
  0.00000000E+00  0.00000000E+00  0.00000000E+00
  0.00000000E+00  0.00000000E+00  0.00000000E+00
  0.00000000E+00  0.00000000E+00  0.00000000E+00
  0.00000000E+00  0.00000000E+00  0.00000000E+00
  0.00000000E+00  0.00000000E+00  0.00000000E+00
  0.00000000E+00  0.00000000E+00  0.00000000E+00
  0.00000000E+00  0.00000000E+00  0.00000000E+00
  0.00000000E+00  0.00000000E+00  0.00000000E+00
  0.00000000E+00  0.00000000E+00  0.00000000E+00
  0.00000000E+00  0.00000000E+00  0.00000000E+00
  0.00000000E+00  0.00000000E+00  0.00000000E+00
  0.00000000E+00  0.00000000E+00  0.00000000E+00
  0.00000000E+00  0.00000000E+00  0.00000000E+00
  0.00000000E+00  0.00000000E+00  0.00000000E+00
  0.00000000E+00  0.00000000E+00  0.00000000E+00
  0.00000000E+00  0.00000000E+00  0.00000000E+00
  0.00000000E+00  0.00000000E+00  0.00000000E+00
  0.00000000E+00  0.00000000E+00  0.00000000E+00
  0.00000000E+00  0.00000000E+00  0.00000000E+00
  0.00000000E+00  0.00000000E+00  0.00000000E+00
  0.00000000E+00  0.00000000E+00  0.00000000E+00
  0.00000000E+00  0.00000000E+00  0.00000000E+00
  0.00000000E+00  0.00000000E+00  0.00000000E+00
  0.00000000E+00  0.00000000E+00  0.00000000E+00
  0.00000000E+00  0.00000000E+00  0.00000000E+00
  0.00000000E+00  0.00000000E+00  0.00000000E+00
  0.00000000E+00  0.00000000E+00  0.00000000E+00
  0.00000000E+00  0.00000000E+00  0.00000000E+00
  0.00000000E+00  0.00000000E+00  0.00000000E+00
  0.00000000E+00  0.00000000E+00  0.00000000E+00
  0.00000000E+00  0.00000000E+00  0.00000000E+00
  0.00000000E+00  0.00000000E+00  0.00000000E+00
  0.00000000E+00  0.00000000E+00  0.00000000E+00
  0.00000000E+00  0.00000000E+00  0.00000000E+00
  0.00000000E+00  0.00000000E+00  0.00000000E+00
  0.00000000E+00  0.00000000E+00  0.00000000E+00
  0.00000000E+00  0.00000000E+00  0.00000000E+00
  0.00000000E+00  0.00000000E+00  0.00000000E+00
  0.00000000E+00  0.00000000E+00  0.00000000E+00
  0.00000000E+00  0.00000000E+00  0.00000000E+00
  0.00000000E+00  0.00000000E+00  0.00000000E+00
  0.00000000E+00  0.00000000E+00  0.00000000E+00
  0.00000000E+00  0.00000000E+00  0.00000000E+00
  0.00000000E+00  0.00000000E+00  0.00000000E+00
  0.00000000E+00  0.00000000E+00  0.00000000E+00
  0.00000000E+00  0.00000000E+00  0.00000000E+00
  0.00000000E+00  0.00000000E+00  0.00000000E+00
  0.00000000E+00  0.00000000E+00  0.00000000E+00
  0.00000000E+00  0.00000000E+00  0.00000000E+00
  0.00000000E+00  0.00000000E+00  0.00000000E+00
  0.00000000E+00  0.00000000E+00  0.00000000E+00
  0.00000000E+00  0.00000000E+00  0.00000000E+00
  0.00000000E+00  0.00000000E+00  0.00000000E+00
  0.00000000E+00  0.00000000E+00  0.00000000E+00
  0.00000000E+00  0.00000000E+00  0.00000000E+00
  0.00000000E+00  0.00000000E+00  0.00000000E+00
  0.00000000E+00  0.00000000E+00  0.00000000E+00
  0.00000000E+00  0.00000000E+00  0.00000000E+00
  0.00000000E+00  0.00000000E+00  0.00000000E+00
  0.00000000E+00  0.00000000E+00  0.00000000E+00
  0.00000000E+00  0.00000000E+00  0.00000000E+00
  0.00000000E+00  0.00000000E+00  0.00000000E+00
  0.00000000E+00  0.00000000E+00  0.00000000E+00
  0.00000000E+00  0.00000000E+00  0.00000000E+00
  0.00000000E+00  0.00000000E+00  0.00000000E+00
  0.00000000E+00  0.00000000E+00  0.00000000E+00
  0.00000000E+00  0.00000000E+00  0.00000000E+00
  0.00000000E+00  0.00000000E+00  0.00000000E+00
  0.00000000E+00  0.00000000E+00  0.00000000E+00
  0.00000000E+00  0.00000000E+00  0.00000000E+00
  0.00000000E+00  0.00000000E+00  0.00000000E+00
  0.00000000E+00  0.00000000E+00  0.00000000E+00
  0.00000000E+00  0.00000000E+00  0.00000000E+00
  0.00000000E+00  0.00000000E+00  0.00000000E+00
  0.00000000E+00  0.00000000E+00  0.00000000E+00
  0.00000000E+00  0.00000000E+00  0.00000000E+00
  0.00000000E+00  0.00000000E+00  0.00000000E+00
  0.00000000E+00  0.00000000E+00  0.00000000E+00
  0.00000000E+00  0.00000000E+00  0.00000000E+00
  0.00000000E+00  0.00000000E+00  0.00000000E+00
  0.00000000E+00  0.00000000E+00  0.00000000E+00
  0.00000000E+00  0.00000000E+00  0.00000000E+00
  0.00000000E+00  0.00000000E+00  0.00000000E+00
  0.00000000E+00  0.00000000E+00  0.00000000E+00
  0.00000000E+00  0.00000000E+00  0.00000000E+00
  0.00000000E+00  0.00000000E+00  0.00000000E+00
  0.00000000E+00  0.00000000E+00  0.00000000E+00
  0.00000000E+00  0.00000000E+00  0.00000000E+00
  0.00000000E+00  0.00000000E+00  0.00000000E+00
  0.00000000E+00  0.00000000E+00  0.00000000E+00
  0.00000000E+00  0.00000000E+00  0.00000000E+00
  0.00000000E+00  0.00000000E+00  0.00000000E+00
  0.00000000E+00  0.00000000E+00  0.00000000E+00
  0.00000000E+00  0.00000000E+00  0.00000000E+00
  0.00000000E+00  0.00000000E+00  0.00000000E+00
  0.00000000E+00  0.00000000E+00  0.00000000E+00
  0.00000000E+00  0.00000000E+00  0.00000000E+00
  0.00000000E+00  0.00000000E+00  0.00000000E+00
  0.00000000E+00  0.00000000E+00  0.00000000E+00
  0.00000000E+00  0.00000000E+00  0.00000000E+00
  0.00000000E+00  0.00000000E+00  0.00000000E+00
  0.00000000E+00  0.00000000E+00  0.00000000E+00
  0.00000000E+00  0.00000000E+00  0.00000000E+00
  0.00000000E+00  0.00000000E+00  0.00000000E+00
  0.00000000E+00  0.00000000E+00  0.00000000E+00
  0.00000000E+00  0.00000000E+00  0.00000000E+00
  0.00000000E+00  0.00000000E+00  0.00000000E+00
  0.00000000E+00  0.00000000E+00  0.00000000E+00
  0.00000000E+00  0.00000000E+00  0.00000000E+00
  0.00000000E+00  0.00000000E+00  0.00000000E+00
  0.00000000E+00  0.00000000E+00  0.00000000E+00
  0.00000000E+00  0.00000000E+00  0.00000000E+00
  0.00000000E+00  0.00000000E+00  0.00000000E+00
  0.00000000E+00  0.00000000E+00  0.00000000E+00
  0.00000000E+00  0.00000000E+00  0.00000000E+00
  0.00000000E+00  0.00000000E+00  0.00000000E+00
  0.00000000E+00  0.00000000E+00  0.00000000E+00
  0.00000000E+00  0.00000000E+00  0.00000000E+00
  0.00000000E+00  0.00000000E+00  0.00000000E+00
  0.00000000E+00  0.00000000E+00  0.00000000E+00
  0.00000000E+00  0.00000000E+00  0.00000000E+00
  0.00000000E+00  0.00000000E+00  0.00000000E+00
  0.00000000E+00  0.00000000E+00  0.00000000E+00
  0.00000000E+00  0.00000000E+00  0.00000000E+00
  0.00000000E+00  0.00000000E+00  0.00000000E+00
  0.00000000E+00  0.00000000E+00  0.00000000E+00
  0.00000000E+00  0.00000000E+00  0.00000000E+00
  0.00000000E+00  0.00000000E+00  0.00000000E+00
  0.00000000E+00  0.00000000E+00  0.00000000E+00
  0.00000000E+00  0.00000000E+00  0.00000000E+00
  0.00000000E+00  0.00000000E+00  0.00000000E+00
  0.00000000E+00  0.00000000E+00  0.00000000E+00
